c 0.0026984214782714844 (encode time in sec)
p cnf 142 242
1 2 3 4 11 0
1 2 3 -4 5 0
1 2 -3 4 8 0
1 2 -3 -4 6 0
1 -2 3 4 7 0
1 -2 3 -4 9 0
1 -2 -3 4 10 0
1 -2 -3 -4 12 0
-1 2 3 4 13 0
-1 2 3 -4 14 0
-1 2 -3 4 0
-1 2 -3 -4 0
-1 -2 3 4 0
-1 -2 3 -4 0
-1 -2 -3 4 0
-1 -2 -3 -4 0
15 1 2 3 4 16 0
15 1 2 3 -4 19 0
15 1 2 -3 4 30 0
15 1 2 -3 -4 18 0
15 1 -2 3 4 17 0
15 1 -2 3 -4 20 0
15 1 -2 -3 4 21 0
15 1 -2 -3 -4 22 0
15 -1 2 3 4 23 0
15 -1 2 3 -4 24 0
-15 1 2 3 4 25 0
-15 1 2 3 -4 26 0
-15 1 2 -3 4 27 0
-15 1 2 -3 -4 28 0
-15 1 -2 3 4 29 0
-15 1 -2 3 -4 34 0
-15 1 -2 -3 4 31 0
-15 1 -2 -3 -4 32 0
-15 -1 2 3 4 33 0
-15 -1 2 3 -4 35 0
36 37 38 39 15 1 2 3 4 82 0
36 37 38 39 15 1 2 3 -4 67 0
36 37 38 39 15 1 2 -3 4 86 0
36 37 38 39 15 1 2 -3 -4 114 0
36 37 38 39 15 1 -2 3 4 50 0
36 37 38 39 15 1 -2 3 -4 40 0
36 37 38 39 15 1 -2 -3 4 78 0
36 37 38 39 15 1 -2 -3 -4 64 0
36 37 38 39 15 -1 2 3 4 131 0
36 37 38 39 15 -1 2 3 -4 79 0
36 37 38 39 -15 1 2 3 4 110 0
36 37 38 39 -15 1 2 3 -4 83 0
36 37 38 39 -15 1 2 -3 4 101 0
36 37 38 39 -15 1 2 -3 -4 77 0
36 37 38 39 -15 1 -2 3 4 81 0
36 37 38 39 -15 1 -2 3 -4 53 0
36 37 38 39 -15 1 -2 -3 4 104 0
36 37 38 39 -15 1 -2 -3 -4 96 0
36 37 38 39 -15 -1 2 3 4 126 0
36 37 38 39 -15 -1 2 3 -4 111 0
36 37 38 -39 15 1 2 3 4 93 0
36 37 38 -39 15 1 2 3 -4 94 0
36 37 38 -39 15 1 2 -3 4 41 0
36 37 38 -39 15 1 2 -3 -4 95 0
36 37 38 -39 15 1 -2 3 4 68 0
36 37 38 -39 15 1 -2 3 -4 42 0
36 37 38 -39 15 1 -2 -3 4 116 0
36 37 38 -39 15 1 -2 -3 -4 69 0
36 37 38 -39 15 -1 2 3 4 117 0
36 37 38 -39 15 -1 2 3 -4 79 0
36 37 38 -39 -15 1 2 3 4 119 0
36 37 38 -39 -15 1 2 3 -4 112 0
36 37 38 -39 -15 1 2 -3 4 45 0
36 37 38 -39 -15 1 2 -3 -4 75 0
36 37 38 -39 -15 1 -2 3 4 105 0
36 37 38 -39 -15 1 -2 3 -4 127 0
36 37 38 -39 -15 1 -2 -3 4 49 0
36 37 38 -39 -15 1 -2 -3 -4 102 0
36 37 38 -39 -15 -1 2 3 4 126 0
36 37 38 -39 -15 -1 2 3 -4 111 0
36 37 -38 39 15 1 2 3 4 82 0
36 37 -38 39 15 1 2 3 -4 67 0
36 37 -38 39 15 1 2 -3 4 120 0
36 37 -38 39 15 1 2 -3 -4 71 0
36 37 -38 39 15 1 -2 3 4 97 0
36 37 -38 39 15 1 -2 3 -4 48 0
36 37 -38 39 15 1 -2 -3 4 73 0
36 37 -38 39 15 1 -2 -3 -4 115 0
36 37 -38 39 15 -1 2 3 4 117 0
36 37 -38 39 15 -1 2 3 -4 46 0
36 37 -38 39 -15 1 2 3 4 70 0
36 37 -38 39 -15 1 2 3 -4 43 0
36 37 -38 39 -15 1 2 -3 4 121 0
36 37 -38 39 -15 1 2 -3 -4 138 0
36 37 -38 39 -15 1 -2 3 4 136 0
36 37 -38 39 -15 1 -2 3 -4 98 0
36 37 -38 39 -15 1 -2 -3 4 118 0
36 37 -38 39 -15 1 -2 -3 -4 128 0
36 37 -38 39 -15 -1 2 3 4 126 0
36 37 -38 39 -15 -1 2 3 -4 111 0
36 37 -38 -39 15 1 2 3 4 82 0
36 37 -38 -39 15 1 2 3 -4 67 0
36 37 -38 -39 15 1 2 -3 4 86 0
36 37 -38 -39 15 1 2 -3 -4 57 0
36 37 -38 -39 15 1 -2 3 4 51 0
36 37 -38 -39 15 1 -2 3 -4 141 0
36 37 -38 -39 15 1 -2 -3 4 87 0
36 37 -38 -39 15 1 -2 -3 -4 132 0
36 37 -38 -39 15 -1 2 3 4 56 0
36 37 -38 -39 15 -1 2 3 -4 106 0
36 37 -38 -39 -15 1 2 3 4 72 0
36 37 -38 -39 -15 1 2 3 -4 89 0
36 37 -38 -39 -15 1 2 -3 4 107 0
36 37 -38 -39 -15 1 2 -3 -4 129 0
36 37 -38 -39 -15 1 -2 3 4 74 0
36 37 -38 -39 -15 1 -2 3 -4 130 0
36 37 -38 -39 -15 1 -2 -3 4 44 0
36 37 -38 -39 -15 1 -2 -3 -4 142 0
36 37 -38 -39 -15 -1 2 3 4 65 0
36 37 -38 -39 -15 -1 2 3 -4 111 0
36 -37 38 39 15 1 2 3 4 82 0
36 -37 38 39 15 1 2 3 -4 113 0
36 -37 38 39 15 1 2 -3 4 66 0
36 -37 38 39 15 1 2 -3 -4 90 0
36 -37 38 39 15 1 -2 3 4 47 0
36 -37 38 39 15 1 -2 3 -4 76 0
36 -37 38 39 15 1 -2 -3 4 80 0
36 -37 38 39 15 1 -2 -3 -4 140 0
36 -37 38 39 15 -1 2 3 4 131 0
36 -37 38 39 15 -1 2 3 -4 106 0
36 -37 38 39 -15 1 2 3 4 88 0
36 -37 38 39 -15 1 2 3 -4 83 0
36 -37 38 39 -15 1 2 -3 4 92 0
36 -37 38 39 -15 1 2 -3 -4 60 0
36 -37 38 39 -15 1 -2 3 4 137 0
36 -37 38 39 -15 1 -2 3 -4 100 0
36 -37 38 39 -15 1 -2 -3 4 61 0
36 -37 38 39 -15 1 -2 -3 -4 128 0
36 -37 38 39 -15 -1 2 3 4 126 0
36 -37 38 39 -15 -1 2 3 -4 111 0
36 -37 38 -39 15 1 2 3 4 82 0
36 -37 38 -39 15 1 2 3 -4 113 0
36 -37 38 -39 15 1 2 -3 4 66 0
36 -37 38 -39 15 1 2 -3 -4 90 0
36 -37 38 -39 15 1 -2 3 4 123 0
36 -37 38 -39 15 1 -2 3 -4 84 0
36 -37 38 -39 15 1 -2 -3 4 125 0
36 -37 38 -39 15 1 -2 -3 -4 140 0
36 -37 38 -39 15 -1 2 3 4 131 0
36 -37 38 -39 15 -1 2 3 -4 106 0
36 -37 38 -39 -15 1 2 3 4 88 0
36 -37 38 -39 -15 1 2 3 -4 139 0
36 -37 38 -39 -15 1 2 -3 4 92 0
36 -37 38 -39 -15 1 2 -3 -4 103 0
36 -37 38 -39 -15 1 -2 3 4 133 0
36 -37 38 -39 -15 1 -2 3 -4 109 0
36 -37 38 -39 -15 1 -2 -3 4 124 0
36 -37 38 -39 -15 1 -2 -3 -4 102 0
36 -37 38 -39 -15 -1 2 3 4 99 0
36 -37 38 -39 -15 -1 2 3 -4 111 0
36 -37 -38 39 15 1 2 3 4 82 0
36 -37 -38 39 15 1 2 3 -4 113 0
36 -37 -38 39 15 1 2 -3 4 66 0
36 -37 -38 39 15 1 2 -3 -4 90 0
36 -37 -38 39 15 1 -2 3 4 123 0
36 -37 -38 39 15 1 -2 3 -4 84 0
36 -37 -38 39 15 1 -2 -3 4 125 0
36 -37 -38 39 15 1 -2 -3 -4 140 0
36 -37 -38 39 15 -1 2 3 4 131 0
36 -37 -38 39 15 -1 2 3 -4 106 0
36 -37 -38 39 -15 1 2 3 4 110 0
36 -37 -38 39 -15 1 2 3 -4 139 0
36 -37 -38 39 -15 1 2 -3 4 134 0
36 -37 -38 39 -15 1 2 -3 -4 122 0
36 -37 -38 39 -15 1 -2 3 4 54 0
36 -37 -38 39 -15 1 -2 3 -4 85 0
36 -37 -38 39 -15 1 -2 -3 4 135 0
36 -37 -38 39 -15 1 -2 -3 -4 96 0
36 -37 -38 39 -15 -1 2 3 4 126 0
36 -37 -38 39 -15 -1 2 3 -4 111 0
36 -37 -38 -39 15 1 2 3 4 82 0
36 -37 -38 -39 15 1 2 3 -4 113 0
36 -37 -38 -39 15 1 2 -3 4 66 0
36 -37 -38 -39 15 1 2 -3 -4 90 0
36 -37 -38 -39 15 1 -2 3 4 123 0
36 -37 -38 -39 15 1 -2 3 -4 84 0
36 -37 -38 -39 15 1 -2 -3 4 125 0
36 -37 -38 -39 15 1 -2 -3 -4 140 0
36 -37 -38 -39 15 -1 2 3 4 131 0
36 -37 -38 -39 15 -1 2 3 -4 106 0
36 -37 -38 -39 -15 1 2 3 4 110 0
36 -37 -38 -39 -15 1 2 3 -4 139 0
36 -37 -38 -39 -15 1 2 -3 4 62 0
36 -37 -38 -39 -15 1 2 -3 -4 63 0
36 -37 -38 -39 -15 1 -2 3 4 58 0
36 -37 -38 -39 -15 1 -2 3 -4 59 0
36 -37 -38 -39 -15 1 -2 -3 4 104 0
36 -37 -38 -39 -15 1 -2 -3 -4 96 0
36 -37 -38 -39 -15 -1 2 3 4 126 0
36 -37 -38 -39 -15 -1 2 3 -4 111 0
-36 37 38 39 15 1 2 3 4 82 0
-36 37 38 39 15 1 2 3 -4 113 0
-36 37 38 39 15 1 2 -3 4 66 0
-36 37 38 39 15 1 2 -3 -4 90 0
-36 37 38 39 15 1 -2 3 4 123 0
-36 37 38 39 15 1 -2 3 -4 84 0
-36 37 38 39 15 1 -2 -3 4 125 0
-36 37 38 39 15 1 -2 -3 -4 140 0
-36 37 38 39 15 -1 2 3 4 131 0
-36 37 38 39 15 -1 2 3 -4 106 0
-36 37 38 39 -15 1 2 3 4 110 0
-36 37 38 39 -15 1 2 3 -4 55 0
-36 37 38 39 -15 1 2 -3 4 62 0
-36 37 38 39 -15 1 2 -3 -4 52 0
-36 37 38 39 -15 1 -2 3 4 54 0
-36 37 38 39 -15 1 -2 3 -4 53 0
-36 37 38 39 -15 1 -2 -3 4 104 0
-36 37 38 39 -15 1 -2 -3 -4 96 0
-36 37 38 39 -15 -1 2 3 4 126 0
-36 37 38 39 -15 -1 2 3 -4 111 0
-36 37 38 -39 15 1 2 3 4 82 0
-36 37 38 -39 15 1 2 3 -4 113 0
-36 37 38 -39 15 1 2 -3 4 66 0
-36 37 38 -39 15 1 2 -3 -4 90 0
-36 37 38 -39 15 1 -2 3 4 123 0
-36 37 38 -39 15 1 -2 3 -4 84 0
-36 37 38 -39 15 1 -2 -3 4 125 0
-36 37 38 -39 15 1 -2 -3 -4 140 0
-36 37 38 -39 15 -1 2 3 4 131 0
-36 37 38 -39 15 -1 2 3 -4 106 0
-36 37 38 -39 -15 1 2 3 4 110 0
-36 37 38 -39 -15 1 2 3 -4 139 0
-36 37 38 -39 -15 1 2 -3 4 108 0
-36 37 38 -39 -15 1 2 -3 -4 52 0
-36 37 38 -39 -15 1 -2 3 4 54 0
-36 37 38 -39 -15 1 -2 3 -4 59 0
-36 37 38 -39 -15 1 -2 -3 4 91 0
-36 37 38 -39 -15 1 -2 -3 -4 96 0
-36 37 38 -39 -15 -1 2 3 4 126 0
-36 37 38 -39 -15 -1 2 3 -4 111 0
-36 37 -38 39 0
-36 37 -38 -39 0
-36 -37 38 39 0
-36 -37 38 -39 0
-36 -37 -38 39 0
-36 -37 -38 -39 0
